
List of user-set options:

                                    Name   Value                used
                           compl_inf_tol = 1                     yes
                         constr_viol_tol = 1                     yes
                            dual_inf_tol = 1000                  yes
                           linear_solver = ma97                  yes
                              ma86_small = 1e-30                  no
                                  ma86_u = 0.0001                 no
                              ma97_order = best                  yes
                              ma97_small = 1e-30                 yes
                            ma97_switch1 = at_start              yes
                            ma97_switch2 = od_hd_reuse           yes
                                  ma97_u = 1e-06                 yes
                               ma97_umax = 0.5                   yes
                                max_iter = 1000                  yes
                    max_refinement_steps = 20                    yes
                    min_refinement_steps = 5                     yes
                                 mu_init = 1e-06                 yes
           mu_superlinear_decrease_power = 1.25                  yes
                   nlp_scaling_min_value = 1e-08                 yes
                        option_file_name = Preset_Case_506_pf.opt  yes
                             output_file = ./tmp/Preset_Case_506_pf.output  yes
                      print_user_options = yes                   yes
        required_infeasibility_reduction = 1                      no
                                     tol = 1e-08                 yes
                   warm_start_bound_frac = 1e-20                 yes
                   warm_start_bound_push = 1e-20                 yes
                   warm_start_init_point = yes                   yes
              warm_start_mult_bound_push = 1e-20                 yes
                warm_start_mult_init_max = 1e+40                 yes
             warm_start_slack_bound_frac = 1e-20                 yes
             warm_start_slack_bound_push = 1e-20                 yes

******************************************************************************
This program contains Ipopt, a library for large-scale nonlinear optimization.
 Ipopt is released as open source code under the Eclipse Public License (EPL).
         For more information visit http://projects.coin-or.org/Ipopt
******************************************************************************

This is Ipopt version 3.12.10, running with linear solver ma97.

Number of nonzeros in equality constraint Jacobian...:   123443
Number of nonzeros in inequality constraint Jacobian.:      213
Number of nonzeros in Lagrangian Hessian.............:    49069

Total number of variables............................:    31591
                     variables with only lower bounds:    12912
                variables with lower and upper bounds:    15130
                     variables with only upper bounds:        0
Total number of equality constraints.................:    31483
Total number of inequality constraints...............:       25
        inequality constraints with only lower bounds:        4
   inequality constraints with lower and upper bounds:        0
        inequality constraints with only upper bounds:       21

iter    objective    inf_pr   inf_du lg(mu)  ||d||  lg(rg) alpha_du alpha_pr  ls
   0 -5.2926723e+00 4.05e-03 1.02e+00  -6.0 0.00e+00    -  0.00e+00 0.00e+00   0
   1 -5.2941210e+00 8.60e+00 4.39e+01  -6.0 2.54e+05    -  1.34e-04 1.78e-03h  1
   2 -5.2940816e+00 8.60e+00 4.37e+01  -6.0 3.41e+03    -  2.10e-03 4.24e-05h  1
   3 -5.2927524e+00 8.58e+00 3.99e+01  -6.0 3.76e+03    -  7.91e-02 1.37e-03h  3
   4r-5.2927524e+00 8.58e+00 9.99e+02   0.9 0.00e+00    -  0.00e+00 2.94e-07R  3
   5r-5.5542816e+00 8.58e+00 9.99e+02   0.9 1.18e+07    -  3.96e-09 6.09e-09f  1
   6 -5.5539559e+00 8.58e+00 2.69e+02  -6.0 5.05e+02    -  7.43e-07 2.00e-04h  1
   7 -5.5518167e+00 8.57e+00 2.68e+02  -6.0 4.96e+02    -  3.75e-04 1.34e-03h  1
   8 -5.5501399e+00 8.56e+00 2.68e+02  -6.0 5.28e+02    -  4.65e-04 1.18e-03h  1
   9 -5.5431797e+00 8.52e+00 2.67e+02  -6.0 3.90e+02    -  2.94e-04 4.14e-03h  1
iter    objective    inf_pr   inf_du lg(mu)  ||d||  lg(rg) alpha_du alpha_pr  ls
  10 -5.5100780e+00 8.39e+00 2.63e+02  -6.0 3.55e+02    -  7.91e-04 1.56e-02h  1
  11 -5.4930803e+00 8.33e+00 2.61e+02  -6.0 3.51e+02    -  2.12e-03 7.99e-03h  1
  12 -5.4441967e+00 8.13e+00 2.90e+02  -6.0 3.48e+02    -  9.64e-03 2.32e-02h  1
  13 -5.3970018e+00 7.94e+00 4.33e+02  -6.0 3.41e+02    -  4.59e-02 2.33e-02h  1
  14 -5.3274220e+00 7.67e+00 6.98e+02  -6.0 3.31e+02    -  7.71e-02 3.48e-02h  3
  15 -5.3007736e+00 7.56e+00 7.18e+02  -6.0 3.13e+02    -  8.42e-02 1.35e-02h  2
  16 -5.2930875e+00 7.54e+00 7.17e+02  -6.0 3.01e+02    -  1.43e-01 3.77e-03h  5
  17 -5.2891070e+00 7.52e+00 7.15e+02  -6.0 2.84e+02    -  9.67e-02 1.78e-03h  5
  18 -5.2878887e+00 7.52e+00 7.15e+02  -6.0 2.75e+02    -  1.75e-01 5.21e-04h  7
  19 -5.0956469e+00 6.95e+00 1.84e+03  -6.0 2.57e+02    -  7.53e-02 7.57e-02h  1
iter    objective    inf_pr   inf_du lg(mu)  ||d||  lg(rg) alpha_du alpha_pr  ls
  20 -4.5067666e+00 5.00e+00 9.14e+03  -6.0 2.60e+02    -  2.72e-01 2.87e-01h  1
  21 -4.4956060e+00 4.91e+00 8.99e+03  -6.0 2.31e+02    -  4.73e-01 1.80e-02h  1
  22 -4.5244945e+00 4.51e+00 1.04e+04  -6.0 2.85e+02    -  2.26e-01 8.25e-02h  1
  23 -4.5304883e+00 4.47e+00 1.04e+04  -6.0 2.81e+02    -  3.78e-02 8.09e-03h  1
  24 -4.5321287e+00 4.46e+00 1.04e+04  -6.0 2.83e+02    -  1.30e-01 2.01e-03h  1
  25 -4.7460646e+00 3.72e+00 2.92e+04  -6.0 3.10e+02    -  3.29e-03 1.67e-01h  1
  26 -4.7523010e+00 3.71e+00 2.93e+04  -6.0 2.19e+02    -  7.76e-03 3.67e-03h  1
  27 -4.7758529e+00 3.66e+00 3.33e+04  -6.0 2.20e+02    -  4.63e-03 1.35e-02h  1
  28 -4.7669816e+00 3.53e+00 1.22e+07  -6.0 1.67e+02    -  1.16e-01 3.58e-02h  1
  29 -4.7669223e+00 3.51e+00 2.11e+07  -6.0 1.70e+02    -  7.60e-02 5.52e-03h  1
iter    objective    inf_pr   inf_du lg(mu)  ||d||  lg(rg) alpha_du alpha_pr  ls
  30 -4.7690149e+00 3.16e+00 6.37e+07  -6.0 1.74e+02    -  4.67e-01 1.00e-01h  1
  31 -4.7883644e+00 3.09e+00 6.56e+07  -6.0 2.12e+02    -  6.21e-02 2.12e-02h  1
  32 -5.2469482e+00 1.95e+00 7.80e+08  -6.0 3.04e+02    -  3.41e-02 3.72e-01h  1
  33 -5.2470583e+00 1.95e+00 7.80e+08  -6.0 3.14e+02    -  8.25e-02 2.86e-04h  1
  34 -5.2507495e+00 1.94e+00 7.74e+08  -6.0 3.03e+02    -  8.60e-02 7.50e-03h  1
  35 -5.3034585e+00 1.76e+00 6.68e+08  -6.0 3.07e+02    -  2.74e-01 9.26e-02f  1
  36 -5.3836176e+00 1.57e+00 5.12e+08  -6.0 4.83e+02    -  1.14e-01 1.10e-01h  1
  37 -5.3896358e+00 1.49e+00 6.40e+08  -6.0 3.68e+02    -  1.63e-01 5.30e-02h  1
  38 -5.4061966e+00 1.93e+00 1.57e+09  -6.0 1.12e+03    -  6.83e-02 1.40e-01h  1
  39 -5.4069647e+00 1.90e+00 1.46e+09  -6.0 8.13e+02    -  1.61e-01 1.94e-02h  1
iter    objective    inf_pr   inf_du lg(mu)  ||d||  lg(rg) alpha_du alpha_pr  ls
  40 -5.4146147e+00 2.13e+00 5.72e+08  -6.0 2.82e+02    -  1.97e-06 2.66e-01h  1
  41 -5.4061166e+00 2.21e+00 8.26e+08  -6.0 4.37e+02    -  2.48e-02 1.79e-02h  5
  42 -5.4052105e+00 2.21e+00 8.27e+08  -6.0 4.53e+02    -  8.05e-02 1.37e-03h  1
  43 -5.3982134e+00 2.24e+00 9.35e+08  -6.0 4.54e+02    -  3.46e-02 1.03e-02h  6
  44 -5.4408253e+00 4.42e+01 1.04e+11  -6.0 4.64e+02    -  5.98e-03 3.13e-01h  1
  45 -5.5036469e+00 4.27e+01 9.28e+10  -6.0 7.41e+02  -4.0 9.71e-04 2.48e-02h  1
  46 -5.4721807e+00 4.07e+01 8.82e+10  -6.0 9.17e+01  -3.6 4.83e-03 4.61e-02h  1
  47r-5.4721807e+00 4.07e+01 1.00e+03   1.1 0.00e+00    -  0.00e+00 2.83e-07R  2
  48r-5.4978179e+00 4.07e+01 1.02e+03   1.1 1.29e+05    -  4.43e-07 2.14e-07f  1
  49 -5.4971946e+00 4.07e+01 2.89e+02  -6.0 1.05e+02    -  3.28e-06 9.47e-04h  1
iter    objective    inf_pr   inf_du lg(mu)  ||d||  lg(rg) alpha_du alpha_pr  ls
  50 -5.4971468e+00 4.06e+01 1.49e+05  -6.0 2.16e+02    -  2.77e-05 2.91e-03h  1
  51 -5.4946622e+00 4.05e+01 1.49e+05  -6.0 3.73e+01    -  5.28e-02 3.28e-03h  1
  52 -5.4134195e+00 3.61e+01 1.91e+05  -6.0 2.50e+01    -  3.66e-03 1.08e-01h  1
  53 -5.4066084e+00 3.57e+01 1.31e+05  -6.0 2.25e+01    -  1.44e-01 1.02e-02h  3
  54 -5.4035932e+00 3.56e+01 1.30e+05  -6.0 2.27e+01    -  2.02e-01 4.61e-03h  7
  55 -5.4033762e+00 3.55e+01 1.96e+05  -6.0 2.32e+01    -  3.24e-01 3.39e-04h 12
  56 -4.8573293e+00 3.82e+00 2.35e+05  -6.0 2.55e+01    -  4.79e-01 8.92e-01h  1
  57 -4.9213394e+00 4.15e-01 1.21e+06  -6.0 1.06e+01    -  5.71e-01 1.00e+00h  1
  58 -5.0324455e+00 4.62e-01 3.23e+08  -6.0 1.02e+02    -  6.21e-03 4.89e-01h  1
  59 -5.1169751e+00 4.94e-01 9.28e+07  -6.0 8.70e+01    -  4.16e-03 3.32e-01h  1
iter    objective    inf_pr   inf_du lg(mu)  ||d||  lg(rg) alpha_du alpha_pr  ls
  60 -5.2293293e+00 5.62e-01 3.70e+07  -6.0 1.63e+01    -  4.30e-01 5.78e-01f  1
  61 -5.4435008e+00 2.89e+00 4.45e+07  -6.0 3.42e+01    -  5.69e-01 7.15e-01f  1
  62 -5.5899447e+00 2.58e+00 2.55e+07  -6.0 2.46e+01    -  4.93e-01 7.79e-01h  1
  63 -5.6076893e+00 1.88e+00 1.90e+07  -6.0 5.69e+01    -  4.00e-01 2.69e-01h  1
  64 -5.6273827e+00 1.28e+00 1.34e+07  -6.0 8.04e+01    -  7.03e-01 3.21e-01h  1
  65 -5.6728267e+00 9.01e-01 8.37e+06  -6.0 1.96e+02    -  8.32e-01 4.42e-01h  1
  66 -5.7181246e+00 8.35e-01 6.07e+06  -6.0 4.74e+02    -  4.04e-01 3.12e-01h  1
  67 -5.7415875e+00 7.43e-01 4.91e+06  -6.0 4.52e+02    -  7.01e-01 1.99e-01h  1
  68 -5.7563160e+00 6.39e-01 4.16e+06  -6.0 8.33e+02    -  2.10e-01 1.52e-01h  1
  69 -5.7699894e+00 5.30e-01 3.45e+06  -6.0 8.31e+02    -  1.57e-01 1.71e-01h  1
iter    objective    inf_pr   inf_du lg(mu)  ||d||  lg(rg) alpha_du alpha_pr  ls
  70 -5.7853653e+00 4.96e-01 2.64e+06  -6.0 8.92e+02    -  2.19e-01 2.37e-01h  1
  71 -5.8106260e+00 1.51e+00 1.34e+06  -6.0 9.36e+02    -  4.06e-01 4.94e-01h  1
  72 -5.8185114e+00 2.45e+00 9.02e+05  -6.0 8.88e+02    -  2.11e-01 3.27e-01h  1
  73 -5.8255889e+00 3.18e+00 6.75e+05  -6.0 1.53e+03    -  2.28e-01 2.52e-01h  1
  74 -5.8335131e+00 5.85e+00 4.90e+05  -6.0 1.91e+03    -  1.55e-01 2.74e-01h  1
  75 -5.8404983e+00 9.49e+00 3.87e+05  -6.0 2.90e+03    -  3.07e-01 2.10e-01h  1
  76 -5.8580860e+00 3.27e+01 1.10e+05  -6.0 1.66e+03    -  7.84e-01 7.14e-01h  1
  77 -5.8630731e+00 2.89e+01 9.73e+04  -6.0 4.55e+03    -  1.44e-01 1.18e-01h  1
  78 -5.8708207e+00 2.85e+01 4.15e+05  -6.0 2.25e+03    -  6.01e-01 2.68e-01h  1
  79 -5.8770740e+00 2.69e+01 6.03e+05  -6.0 4.14e+03    -  2.81e-01 1.73e-01h  1
iter    objective    inf_pr   inf_du lg(mu)  ||d||  lg(rg) alpha_du alpha_pr  ls
  80 -5.8797485e+00 7.27e+01 1.90e+06  -6.0 3.11e+04    -  1.85e-03 5.48e-02h  1
  81 -5.8803687e+00 7.25e+01 1.89e+06  -6.0 1.98e+04    -  9.52e-03 7.22e-03h  1
  82 -5.8814041e+00 7.33e+01 1.86e+06  -6.0 1.89e+04    -  3.81e-02 1.65e-02h  1
  83r-5.8814041e+00 7.33e+01 1.00e+03   1.8 0.00e+00    -  0.00e+00 6.97e-08R  2
  84r-5.8814517e+00 7.33e+01 1.08e+06   1.8 2.23e+05    -  1.19e-09 3.19e-10f  1
  85 -5.8814509e+00 7.30e+01 4.72e+05  -6.0 2.87e+01    -  8.77e-04 3.58e-03h  1
  86 -5.8814168e+00 6.36e+01 5.04e+06  -6.0 3.00e+01    -  2.16e-03 1.29e-01h  1
  87 -5.8814163e+00 6.35e+01 5.03e+06  -6.0 2.71e+01    -  1.96e-02 1.46e-03h  1
  88 -5.8812643e+00 3.34e+01 2.78e+06  -6.0 2.70e+01    -  1.18e-01 4.74e-01h  1
  89r-5.8812643e+00 3.34e+01 1.00e+03   1.4 0.00e+00    -  0.00e+00 4.87e-07R  5
iter    objective    inf_pr   inf_du lg(mu)  ||d||  lg(rg) alpha_du alpha_pr  ls
  90r-5.8832224e+00 3.34e+01 1.27e+03   1.4 7.59e+04    -  1.73e-07 1.33e-08f  1
  91 -5.8832196e+00 3.34e+01 4.73e+04  -6.0 1.49e+01    -  1.06e-01 1.55e-03h  1
  92 -5.8830847e+00 3.09e+01 2.08e+06  -6.0 1.75e+01    -  1.67e-03 7.28e-02h  1
  93 -5.8829118e+00 2.71e+01 1.82e+06  -6.0 1.08e+01    -  2.55e-02 1.23e-01h  1
  94 -5.8829117e+00 2.71e+01 1.82e+06  -6.0 1.47e+01    -  1.04e-01 5.26e-05h  1
  95 -5.8816508e+00 6.82e+00 4.59e+05  -6.0 1.27e+01    -  2.12e-02 7.49e-01h  1
  96 -5.8816506e+00 6.82e+00 4.59e+05  -6.0 1.86e+00  -2.2 5.42e-01 1.36e-04h  1
  97 -5.8814187e+00 5.15e+00 3.46e+05  -6.0 3.54e+00    -  1.28e-01 2.45e-01h  1
  98 -5.8813493e+00 4.22e+00 2.84e+05  -6.0 8.48e+00  -2.7 8.65e-02 1.81e-01h  1
  99 -5.8811686e+00 2.14e+00 1.44e+05  -6.0 2.89e+00    -  2.80e-02 4.94e-01h  1
iter    objective    inf_pr   inf_du lg(mu)  ||d||  lg(rg) alpha_du alpha_pr  ls
 100 -5.8811783e+00 2.09e+00 1.41e+05  -6.0 1.54e+00    -  9.13e-01 2.14e-02h  1
 101 -5.8882971e+00 8.65e-03 7.90e+02  -6.0 7.06e+00    -  8.02e-01 1.00e+00h  1
 102 -5.8898967e+00 9.18e-03 6.84e+02  -6.0 2.95e+01    -  1.19e-01 1.49e-01h  1
 103 -5.9008806e+00 8.60e-02 2.50e+01  -6.0 3.23e+01    -  7.38e-01 1.00e+00f  1
 104 -5.9073784e+00 1.39e-01 2.40e+01  -6.0 6.64e+01    -  5.37e-01 8.25e-01h  1
 105 -5.9090454e+00 7.79e-02 1.38e+02  -6.0 8.33e+01    -  6.33e-01 4.50e-01h  1
 106 -5.9172397e+00 1.45e+00 3.92e+01  -6.0 3.40e+02    -  5.58e-01 6.47e-01h  1
 107 -5.9184438e+00 1.02e+00 5.52e+04  -6.0 2.00e+00  -3.2 2.17e-01 3.00e-01h  1
 108 -5.9325344e+00 1.47e+01 9.83e+04  -6.0 2.25e+03    -  7.18e-02 4.47e-01h  1
 109 -5.9458290e+00 4.84e+00 1.61e+05  -6.0 2.14e+02    -  1.08e-01 6.70e-01h  1
iter    objective    inf_pr   inf_du lg(mu)  ||d||  lg(rg) alpha_du alpha_pr  ls
 110 -5.9468615e+00 2.74e+00 8.25e+04  -6.0 3.28e+02    -  4.75e-01 4.67e-01f  1
 111 -5.9473675e+00 1.45e+00 4.17e+04  -6.0 2.80e+02    -  9.15e-01 9.69e-01h  1
 112 -5.9504930e+00 1.36e+00 3.57e+05  -6.0 1.03e+03    -  2.70e-01 7.23e-02h  1
 113r-5.9504930e+00 1.36e+00 1.00e+03   0.1 0.00e+00    -  0.00e+00 1.92e-07R  2
 114r-5.9644464e+00 1.36e+00 1.00e+03   0.1 1.82e+04    -  5.04e-06 1.39e-06f  1
 115 -5.9643959e+00 1.34e+00 4.60e+03  -6.0 2.03e+01    -  3.54e-06 1.63e-02h  1
 116 -5.9642822e+00 1.30e+00 4.45e+03  -6.0 2.00e+01    -  1.86e-02 3.24e-02h  1
 117 -5.9640435e+00 1.21e+00 4.16e+03  -6.0 1.94e+01    -  1.94e-01 6.66e-02h  1
 118 -5.9631210e+00 8.97e-01 3.08e+03  -6.0 1.82e+01    -  1.49e-01 2.59e-01h  1
 119 -5.9613248e+00 3.89e-01 1.33e+03  -6.0 1.36e+01    -  5.92e-01 5.67e-01h  1
iter    objective    inf_pr   inf_du lg(mu)  ||d||  lg(rg) alpha_du alpha_pr  ls
 120 -5.9597793e+00 3.66e-03 1.53e+01  -6.0 6.00e+00    -  9.08e-01 1.00e+00h  1
 121 -5.9617098e+00 2.56e-03 2.31e+01  -6.0 6.15e+00    -  8.99e-01 1.00e+00h  1
 122 -5.9702088e+00 8.57e-02 8.17e+00  -6.0 4.47e+01    -  7.77e-01 1.00e+00h  1
 123 -5.9797350e+00 2.48e-01 1.08e+01  -6.0 1.01e+02    -  7.72e-01 7.20e-01h  1
 124 -5.9817386e+00 1.74e-01 1.72e+03  -6.0 1.10e+02    -  9.13e-01 3.97e-01h  1
 125 -5.9906723e+00 9.65e-01 9.58e+01  -6.0 2.27e+02    -  8.97e-01 9.59e-01h  1
 126 -5.9915436e+00 8.20e-01 1.83e+02  -6.0 8.61e+01  -3.7 1.23e-05 1.50e-01h  1
 127 -5.9911354e+00 2.56e-01 9.13e+03  -6.0 2.63e+00  -4.2 1.58e-01 6.87e-01h  1
 128 -5.9904264e+00 1.33e-04 1.28e+00  -6.0 1.65e+00  -4.6 1.00e+00 1.00e+00h  1
 129 -5.9905593e+00 8.52e-04 1.04e-01  -6.0 4.51e+00  -5.1 1.00e+00 1.00e+00h  1
iter    objective    inf_pr   inf_du lg(mu)  ||d||  lg(rg) alpha_du alpha_pr  ls
 130 -5.9912064e+00 4.94e-03 4.14e-01  -6.0 1.09e+01  -5.6 1.00e+00 1.00e+00h  1
 131 -5.9924269e+00 2.04e-02 7.85e-01  -6.0 2.21e+01  -6.1 1.00e+00 1.00e+00h  1
 132 -5.9944191e+00 5.68e-02 1.11e+00  -6.0 3.69e+01  -6.5 1.00e+00 1.00e+00h  1
 133 -5.9965983e+00 7.92e-02 1.12e+00  -6.0 4.63e+01  -7.0 1.00e+00 1.00e+00h  1
 134 -5.9969853e+00 9.47e-02 4.14e-01  -6.0 4.60e+01  -7.5 1.00e+00 1.00e+00h  1
 135 -5.9959565e+00 1.63e-02 4.63e+00  -6.0 8.18e+01  -8.0 1.00e+00 1.00e+00H  1
 136 -5.9973458e+00 9.48e-02 8.75e+00  -6.0 2.11e+02  -8.4 6.86e-01 1.00e+00H  1
 137 -6.0000856e+00 3.27e+00 1.55e+00  -6.0 4.19e+02  -8.9 1.00e+00 1.00e+00h  1
 138 -5.9995432e+00 2.48e+00 1.16e+00  -6.0 8.10e+02  -9.4 3.74e-01 3.34e-01H  1
 139 -5.9995403e+00 2.40e+00 3.76e+01  -6.0 2.10e+03  -9.9 7.46e-01 3.09e-02h  5
iter    objective    inf_pr   inf_du lg(mu)  ||d||  lg(rg) alpha_du alpha_pr  ls
 140 -5.9999480e+00 4.86e+01 3.07e+01  -6.0 8.13e+03 -10.4 4.78e-02 1.90e-01h  1
 141 -5.9999067e+00 4.38e+01 6.36e+02  -6.0 6.41e+03    -  6.60e-01 1.20e-01H  1
 142 -5.9997734e+00 3.90e+01 5.58e+02  -6.0 1.45e+03    -  8.23e-01 1.24e-01h  4
 143 -5.9997513e+00 3.81e+01 5.45e+02  -6.0 9.76e+02    -  1.00e+00 2.36e-02h  6
 144 -5.9997443e+00 3.78e+01 5.41e+02  -6.0 9.12e+02    -  1.00e+00 7.36e-03h  8
 145 -5.9997439e+00 3.78e+01 5.40e+02  -6.0 9.08e+02    -  1.00e+00 4.88e-04h 12
 146 -5.9997436e+00 3.77e+01 5.40e+02  -6.0 9.01e+02    -  1.00e+00 2.44e-04h 13
 147 -5.9988003e+00 1.33e+01 5.75e+00  -6.0 9.03e+02    -  1.00e+00 1.00e+00h  1
 148 -5.9987488e+00 1.01e+01 7.79e+00  -6.0 1.20e+03    -  3.56e-01 2.51e-01h  1
 149 -5.9986867e+00 9.18e+00 1.03e+02  -6.0 1.67e+03    -  4.97e-01 5.43e-01H  1
iter    objective    inf_pr   inf_du lg(mu)  ||d||  lg(rg) alpha_du alpha_pr  ls
 150 -5.9989337e+00 4.82e+01 5.81e+01  -6.0 3.69e+03    -  9.65e-01 4.36e-01h  1
 151 -5.9988753e+00 4.68e+01 5.23e+01  -6.0 4.80e+03    -  5.66e-02 9.88e-02h  2
 152 -5.9985828e+00 3.71e+00 2.01e+02  -6.0 4.51e+02    -  2.75e-01 1.00e+00h  1
 153 -5.9985544e+00 1.81e-01 1.71e+00  -6.0 1.13e+02    -  1.00e+00 1.00e+00h  1
 154 -5.9985569e+00 4.15e-03 1.11e-02  -6.0 1.55e+01    -  1.00e+00 1.00e+00h  1
 155 -5.9985564e+00 1.66e-03 8.96e-04  -6.0 1.04e+01    -  1.00e+00 1.00e+00h  1
 156 -5.9985564e+00 1.51e-06 1.39e-06  -6.0 3.17e-01    -  1.00e+00 1.00e+00h  1
 157 -5.9986916e+00 2.95e+00 7.36e+01  -7.5 5.97e+02    -  4.84e-01 7.38e-01h  1
 158 -5.9986852e+00 7.80e-01 8.94e+00  -7.5 1.51e+02    -  9.61e-01 8.19e-01h  1
 159 -5.9986795e+00 1.39e-02 2.05e-02  -7.5 2.91e+01    -  1.00e+00 1.00e+00h  1
iter    objective    inf_pr   inf_du lg(mu)  ||d||  lg(rg) alpha_du alpha_pr  ls
 160 -5.9986793e+00 3.81e-05 1.14e-05  -7.5 1.58e+00    -  1.00e+00 1.00e+00h  1
 161 -5.9986793e+00 7.65e-07 2.10e-07  -7.5 2.24e-01    -  1.00e+00 1.00e+00h  1
 162 -5.9986793e+00 3.38e-10 9.22e-11  -7.5 4.70e-03    -  1.00e+00 1.00e+00h  1
 163 -5.9986809e+00 3.34e-03 8.48e-01  -9.0 1.75e+01    -  9.27e-01 8.34e-01h  1
 164 -5.9986811e+00 1.20e-04 3.34e-01  -9.0 2.77e+00    -  9.24e-01 1.00e+00h  1
 165 -5.9986811e+00 4.18e-06 1.17e-06  -9.0 5.24e-01    -  1.00e+00 1.00e+00h  1
 166 -5.9986811e+00 2.78e-07 7.75e-08  -9.0 1.35e-01    -  1.00e+00 1.00e+00h  1
 167 -5.9986811e+00 1.13e-09 3.14e-10  -9.0 8.60e-03    -  1.00e+00 1.00e+00h  1

Number of Iterations....: 167

                                   (scaled)                 (unscaled)
Objective...............:  -4.6864696231141121e+00   -5.9986811175860630e+00
Dual infeasibility......:   3.1358583785223715e-10    4.0138987245086356e-10
Constraint violation....:   6.4962304560911863e-10    1.1277734301984310e-09
Complementarity.........:   9.0917407380958673e-10    1.1637428144762710e-09
Overall NLP error.......:   9.0917407380958673e-10    1.1637428144762710e-09


Number of objective function evaluations             = 284
Number of objective gradient evaluations             = 168
Number of equality constraint evaluations            = 284
Number of inequality constraint evaluations          = 284
Number of equality constraint Jacobian evaluations   = 173
Number of inequality constraint Jacobian evaluations = 173
Number of Lagrangian Hessian evaluations             = 167
Total CPU secs in IPOPT (w/o function evaluations)   =    315.242
Total CPU secs in NLP function evaluations           =      6.714

EXIT: Optimal Solution Found.
